n = 60;
capacity = 100;
size = [77, 75, 74, 71, 71, 71, 68, 68, 67, 67, 67, 65, 64, 64, 63, 61, 60, 58, 58, 57, 57, 55, 54, 54, 52, 48, 47, 47, 46, 44, 42, 42, 41, 41, 37, 37, 37, 36, 35, 34, 34, 34, 33, 33, 32, 30, 29, 28, 27, 26, 26, 26, 25, 25, 25, 22, 21, 21, 21, 20];
